     Program PWSCF v.7.0 starts on 30Jul2023 at  2:28:15

     K-points division:     npool     =       2
     R & G space division:  proc/nbgrp/npool/nimage =      40

     Reading input from scf.in

     Current dimensions of program PWSCF are:
     Max number of different atomic species (ntypx) = 10
     Max number of k-points (npk) =  40000
     Max angular momentum in pseudopotentials (lmaxx) =  4
     Message from routine read_pp_mesh:
     mismatch in mesh size, discarding the one in header
     Message from routine read_pp_mesh:
     mismatch in mesh size, discarding the one in header
     Message from routine read_pp_mesh:
     mismatch in mesh size, discarding the one in header

     Subspace diagonalization in iterative solution of the eigenvalue problem:
     a serial algorithm will be used

     Using Slab Decomposition

     bravais-lattice index     =            4
     lattice parameter (alat)  =      10.0359  a.u.
     unit-cell volume          =    1297.4095 (a.u.)^3
     number of atoms/cell      =            9
     number of atomic types    =            3
     number of electrons       =       123.00
     number of Kohn-Sham states=           74
     kinetic-energy cutoff     =      45.0000  Ry
     charge density cutoff     =     360.0000  Ry
     scf convergence threshold =      1.0E-14
     mixing beta               =       0.7000
     number of iterations used =            8  plain     mixing
     Exchange-correlation= SLA PW PBX PBC
                           (   1   4   3   4   0   0   0)

     celldm(1)=  10.035920  celldm(2)=   0.000000  celldm(3)=   1.482091
     celldm(4)=   0.000000  celldm(5)=   0.000000  celldm(6)=   0.000000

     crystal axes: (cart. coord. in units of alat)
               a(1) = (   1.000000   0.000000   0.000000 )
               a(2) = (  -0.500000   0.866025   0.000000 )
               a(3) = (   0.000000   0.000000   1.482091 )

     reciprocal axes: (cart. coord. in units 2 pi/alat)
               b(1) = (  1.000000  0.577350  0.000000 )
               b(2) = (  0.000000  1.154701  0.000000 )
               b(3) = (  0.000000  0.000000  0.674722 )

     PseudoPot. # 1 for Cs read from file:
     ./Cs.upf
     MD5 check sum: 541f6363487545700a1f267f58e7ad21
     Pseudo is Projector augmented-wave + core cor, Zval =  9.0
     Generated using ATOMPAW code
     Shape of augmentation charge: SINC**2
     Using radial grid of 2342 points,  6 beta functions with:
                l(1) =   0
                l(2) =   0
                l(3) =   1
                l(4) =   1
                l(5) =   2
                l(6) =   2
     Q(r) pseudized with 0 coefficients

     PseudoPot. # 2 for V  read from file:
     ./V.upf
     MD5 check sum: 7f2f11533c26bed1e4abef38184b9f47
     Pseudo is Projector augmented-wave + core cor, Zval = 13.0
     Generated using ATOMPAW code
     Shape of augmentation charge: BESSEL
     Using radial grid of 2342 points,  6 beta functions with:
                l(1) =   0
                l(2) =   0
                l(3) =   1
                l(4) =   1
                l(5) =   2
                l(6) =   2
     Q(r) pseudized with 0 coefficients

     PseudoPot. # 3 for Sb read from file:
     ./Sb.upf
     MD5 check sum: 0b06ae7fe364114d19db6fe830587df2
     Pseudo is Projector augmented-wave + core cor, Zval = 15.0
     Generated using ATOMPAW code
     Shape of augmentation charge: BESSEL
     Using radial grid of 2342 points,  6 beta functions with:
                l(1) =   0
                l(2) =   0
                l(3) =   1
                l(4) =   1
                l(5) =   2
                l(6) =   2
     Q(r) pseudized with 0 coefficients

     atomic species   valence    mass     pseudopotential
        Cs             9.00   132.90545     Cs( 1.00)
        V             13.00    50.94150     V ( 1.00)
        Sb            15.00   121.76000     Sb( 1.00)

     24 Sym. Ops., with inversion, found

                                    s                        frac. trans.

      isym =  1     identity

 cryst.   s( 1) = (     1          0          0      )
                  (     0          1          0      )
                  (     0          0          1      )

 cart.    s( 1) = (  1.0000000  0.0000000  0.0000000 )
                  (  0.0000000  1.0000000  0.0000000 )
                  (  0.0000000  0.0000000  1.0000000 )

      isym =  2     180 deg rotation - cart. axis [0,0,1]

[...]

      isym =  4     180 deg rotation - cart. axis [1,0,0]

[...]

      isym =  5      60 deg rotation - cryst. axis [0,0,1]

[...]

 cryst.   s( 9) = (     0         -1          0      )
                  (    -1          0          0      )
                  (     0          0         -1      )

 cart.    s( 9) = (  0.5000000 -0.8660254  0.0000000 )
                  ( -0.8660254 -0.5000000  0.0000000 )
                  (  0.0000000  0.0000000 -1.0000000 )

[...]

 cryst.   s(10) = (     1          1          0      )
                  (     0         -1          0      )
                  (     0          0         -1      )

 cart.    s(10) = (  0.5000000  0.8660254  0.0000000 )
                  (  0.8660254 -0.5000000  0.0000000 )
                  (  0.0000000  0.0000000 -1.0000000 )

[...]

      isym = 12     180 deg rotation - cryst. axis [1,1,0]

[...]

      isym = 13     inversion

[...]

      isym = 14     inv. 180 deg rotation - cart. axis [0,0,1]

[...]

      isym = 16     inv. 180 deg rotation - cart. axis [1,0,0]

[...]

      isym = 17     inv.  60 deg rotation - cryst. axis [0,0,1]

[...]

      isym = 24     inv. 180 deg rotation - cryst. axis [1,1,0]

 cryst.   s(24) = (     0         -1          0      )
                  (    -1          0          0      )
                  (     0          0          1      )

 cart.    s(24) = (  0.5000000 -0.8660254  0.0000000 )
                  ( -0.8660254 -0.5000000  0.0000000 )
                  (  0.0000000  0.0000000  1.0000000 )

     point group D_6h(6/mmm)
     there are 12 classes
     the character table:

       E     2C6   2C3   C2    3C2'  3C2'' i     2S3   2S6   s_h   3s_d  3s_v
A_1g   1.00  1.00  1.00  1.00  1.00  1.00  1.00  1.00  1.00  1.00  1.00  1.00
A_2g   1.00  1.00  1.00  1.00 -1.00 -1.00  1.00  1.00  1.00  1.00 -1.00 -1.00
B_1g   1.00 -1.00  1.00 -1.00  1.00 -1.00  1.00 -1.00  1.00 -1.00  1.00 -1.00
B_2g   1.00 -1.00  1.00 -1.00 -1.00  1.00  1.00 -1.00  1.00 -1.00 -1.00  1.00
E_1g   2.00  1.00 -1.00 -2.00  0.00  0.00  2.00  1.00 -1.00 -2.00  0.00  0.00
E_2g   2.00 -1.00 -1.00  2.00  0.00  0.00  2.00 -1.00 -1.00  2.00  0.00  0.00
A_1u   1.00  1.00  1.00  1.00  1.00  1.00 -1.00 -1.00 -1.00 -1.00 -1.00 -1.00
A_2u   1.00  1.00  1.00  1.00 -1.00 -1.00 -1.00 -1.00 -1.00 -1.00  1.00  1.00
B_1u   1.00 -1.00  1.00 -1.00  1.00 -1.00 -1.00  1.00 -1.00  1.00 -1.00  1.00
B_2u   1.00 -1.00  1.00 -1.00 -1.00  1.00 -1.00  1.00 -1.00  1.00  1.00 -1.00
E_1u   2.00  1.00 -1.00 -2.00  0.00  0.00 -2.00 -1.00  1.00  2.00  0.00  0.00
E_2u   2.00 -1.00 -1.00  2.00  0.00  0.00 -2.00  1.00  1.00 -2.00  0.00  0.00

     the symmetry operations in each class and the name of the first element:

     E        1
          identity
     2C6      5    6
           60 deg rotation - cryst. axis [0,0,1]
     2C3      7    8
          120 deg rotation - cryst. axis [0,0,1]
     C2       2
          180 deg rotation - cart. axis [0,0,1]
     3C2'     4   12   11
          180 deg rotation - cart. axis [1,0,0]
     3C2''    3    9   10
          180 deg rotation - cart. axis [0,1,0]
     i       13
          inversion
     2S3     17   18
          inv.  60 deg rotation - cryst. axis [0,0,1]
     2S6     19   20
          inv. 120 deg rotation - cryst. axis [0,0,1]
     s_h     14
          inv. 180 deg rotation - cart. axis [0,0,1]
     3s_d    16   24   23
          inv. 180 deg rotation - cart. axis [1,0,0]
     3s_v    15   21   22
          inv. 180 deg rotation - cart. axis [0,1,0]

   Cartesian axes

     site n.     atom                  positions (alat units)
         1           Cs  tau(   1) = (   0.0000000   0.0000000   0.0000000  )
         2           V   tau(   2) = (   0.2499999   0.4330126   0.7410455  )
         3           V   tau(   3) = (   0.4999998   0.0000000   0.7410455  )
         4           V   tau(   4) = (  -0.2499999   0.4330125   0.7410455  )
         5           Sb  tau(   5) = (   0.0000000   0.0000000   0.7410455  )
         6           Sb  tau(   6) = (   0.4999999   0.2886750   1.1557120  )
         7           Sb  tau(   7) = (  -0.0000001   0.5773501   0.3263789  )
         8           Sb  tau(   8) = (  -0.0000001   0.5773501   1.1557120  )
         9           Sb  tau(   9) = (   0.4999999   0.2886750   0.3263789  )

   Crystallographic axes

     site n.     atom                  positions (cryst. coord.)
         1           Cs  tau(   1) = (  0.0000000  0.0000000  0.0000000  )
         2           V   tau(   2) = (  0.4999998  0.4999998  0.4999999  )
         3           V   tau(   3) = (  0.4999998  0.0000000  0.4999999  )
         4           V   tau(   4) = (  0.0000000  0.4999998  0.4999999  )
         5           Sb  tau(   5) = (  0.0000000  0.0000000  0.4999999  )
         6           Sb  tau(   6) = (  0.6666665  0.3333332  0.7797847  )
         7           Sb  tau(   7) = (  0.3333332  0.6666665  0.2202151  )
         8           Sb  tau(   8) = (  0.3333332  0.6666665  0.7797847  )
         9           Sb  tau(   9) = (  0.6666665  0.3333332  0.2202151  )

     number of k points=    50  Gaussian smearing, width (Ry)=  0.0200
                       cart. coord. in units 2pi/alat
        k(    1) = (   0.0000000   0.0000000   0.0000000), wk =   0.0039062
        k(    2) = (   0.0000000   0.0000000   0.0843403), wk =   0.0078125
        k(    3) = (   0.0000000   0.0000000   0.1686806), wk =   0.0078125
        k(    4) = (   0.0000000   0.0000000   0.2530209), wk =   0.0078125
        k(    5) = (   0.0000000   0.0000000  -0.3373612), wk =   0.0039062
        k(    6) = (   0.0000000   0.1443376   0.0000000), wk =   0.0234375
        k(    7) = (   0.0000000   0.1443376   0.0843403), wk =   0.0468750
        k(    8) = (   0.0000000   0.1443376   0.1686806), wk =   0.0468750
        k(    9) = (   0.0000000   0.1443376   0.2530209), wk =   0.0468750
        k(   10) = (   0.0000000   0.1443376  -0.3373612), wk =   0.0234375
        k(   11) = (   0.0000000   0.2886751   0.0000000), wk =   0.0234375
        k(   12) = (   0.0000000   0.2886751   0.0843403), wk =   0.0468750
        k(   13) = (   0.0000000   0.2886751   0.1686806), wk =   0.0468750
        k(   14) = (   0.0000000   0.2886751   0.2530209), wk =   0.0468750
        k(   15) = (   0.0000000   0.2886751  -0.3373612), wk =   0.0234375
        k(   16) = (   0.0000000   0.4330127   0.0000000), wk =   0.0234375
        k(   17) = (   0.0000000   0.4330127   0.0843403), wk =   0.0468750
        k(   18) = (   0.0000000   0.4330127   0.1686806), wk =   0.0468750
        k(   19) = (   0.0000000   0.4330127   0.2530209), wk =   0.0468750
        k(   20) = (   0.0000000   0.4330127  -0.3373612), wk =   0.0234375
[...]
        k(   39) = (   0.1250000   0.5051815   0.2530209), wk =   0.0937500
        k(   40) = (   0.1250000   0.5051815  -0.3373612), wk =   0.0468750
        k(   41) = (   0.2500000   0.4330127   0.0000000), wk =   0.0234375
        k(   42) = (   0.2500000   0.4330127   0.0843403), wk =   0.0468750
        k(   43) = (   0.2500000   0.4330127   0.1686806), wk =   0.0468750
        k(   44) = (   0.2500000   0.4330127   0.2530209), wk =   0.0468750
        k(   45) = (   0.2500000   0.4330127  -0.3373612), wk =   0.0234375
        k(   46) = (   0.2500000   0.5773503   0.0000000), wk =   0.0234375
        k(   47) = (   0.2500000   0.5773503   0.0843403), wk =   0.0468750
        k(   48) = (   0.2500000   0.5773503   0.1686806), wk =   0.0468750
        k(   49) = (   0.2500000   0.5773503   0.2530209), wk =   0.0468750
        k(   50) = (   0.2500000   0.5773503  -0.3373612), wk =   0.0234375

                       cryst. coord.
        k(    1) = (   0.0000000   0.0000000   0.0000000), wk =   0.0039062
        k(    2) = (   0.0000000   0.0000000   0.1250000), wk =   0.0078125
        k(    3) = (   0.0000000   0.0000000   0.2500000), wk =   0.0078125
        k(    4) = (   0.0000000   0.0000000   0.3750000), wk =   0.0078125
        k(    5) = (   0.0000000   0.0000000  -0.5000000), wk =   0.0039062
        k(    6) = (   0.0000000   0.1250000   0.0000000), wk =   0.0234375
        k(    7) = (   0.0000000   0.1250000   0.1250000), wk =   0.0468750
        k(    8) = (   0.0000000   0.1250000   0.2500000), wk =   0.0468750
        k(    9) = (   0.0000000   0.1250000   0.3750000), wk =   0.0468750
        k(   10) = (   0.0000000   0.1250000  -0.5000000), wk =   0.0234375
        k(   11) = (   0.0000000   0.2500000   0.0000000), wk =   0.0234375
        k(   12) = (   0.0000000   0.2500000   0.1250000), wk =   0.0468750
        k(   13) = (   0.0000000   0.2500000   0.2500000), wk =   0.0468750
        k(   14) = (   0.0000000   0.2500000   0.3750000), wk =   0.0468750
        k(   15) = (   0.0000000   0.2500000  -0.5000000), wk =   0.0234375
        k(   16) = (   0.0000000   0.3750000   0.0000000), wk =   0.0234375
        k(   17) = (   0.0000000   0.3750000   0.1250000), wk =   0.0468750
        k(   18) = (   0.0000000   0.3750000   0.2500000), wk =   0.0468750
        k(   19) = (   0.0000000   0.3750000   0.3750000), wk =   0.0468750
        k(   20) = (   0.0000000   0.3750000  -0.5000000), wk =   0.0234375
        k(   21) = (   0.0000000  -0.5000000   0.0000000), wk =   0.0117188
        k(   22) = (   0.0000000  -0.5000000   0.1250000), wk =   0.0234375
        k(   23) = (   0.0000000  -0.5000000   0.2500000), wk =   0.0234375
        k(   24) = (   0.0000000  -0.5000000   0.3750000), wk =   0.0234375
        k(   25) = (   0.0000000  -0.5000000  -0.5000000), wk =   0.0117188
        k(   26) = (   0.1250000   0.1250000   0.0000000), wk =   0.0234375
        k(   27) = (   0.1250000   0.1250000   0.1250000), wk =   0.0468750
        k(   28) = (   0.1250000   0.1250000   0.2500000), wk =   0.0468750
        k(   29) = (   0.1250000   0.1250000   0.3750000), wk =   0.0468750
        k(   30) = (   0.1250000   0.1250000  -0.5000000), wk =   0.0234375
        k(   31) = (   0.1250000   0.2500000   0.0000000), wk =   0.0468750
        k(   32) = (   0.1250000   0.2500000   0.1250000), wk =   0.0937500
        k(   33) = (   0.1250000   0.2500000   0.2500000), wk =   0.0937500
        k(   34) = (   0.1250000   0.2500000   0.3750000), wk =   0.0937500
        k(   35) = (   0.1250000   0.2500000  -0.5000000), wk =   0.0468750
        k(   36) = (   0.1250000   0.3750000   0.0000000), wk =   0.0468750
        k(   37) = (   0.1250000   0.3750000   0.1250000), wk =   0.0937500
        k(   38) = (   0.1250000   0.3750000   0.2500000), wk =   0.0937500
        k(   39) = (   0.1250000   0.3750000   0.3750000), wk =   0.0937500
        k(   40) = (   0.1250000   0.3750000  -0.5000000), wk =   0.0468750
        k(   41) = (   0.2500000   0.2500000   0.0000000), wk =   0.0234375
        k(   42) = (   0.2500000   0.2500000   0.1250000), wk =   0.0468750
        k(   43) = (   0.2500000   0.2500000   0.2500000), wk =   0.0468750
        k(   44) = (   0.2500000   0.2500000   0.3750000), wk =   0.0468750
        k(   45) = (   0.2500000   0.2500000  -0.5000000), wk =   0.0234375
        k(   46) = (   0.2500000   0.3750000   0.0000000), wk =   0.0234375
        k(   47) = (   0.2500000   0.3750000   0.1250000), wk =   0.0468750
        k(   48) = (   0.2500000   0.3750000   0.2500000), wk =   0.0468750
        k(   49) = (   0.2500000   0.3750000   0.3750000), wk =   0.0468750
        k(   50) = (   0.2500000   0.3750000  -0.5000000), wk =   0.0234375

     Check: negative core charge=   -0.000003

     Initial potential from superposition of free atoms

     starting charge     122.9551, renormalised to     123.0000
     Starting wfcs are  162 randomized atomic wfcs
     Checking if some PAW data can be deallocated...

     Self-consistent Calculation

     iteration #  1     ecut=    45.00 Ry     beta= 0.70
     Davidson diagonalization with overlap

     ethr =  1.00E-02,  avg # of iterations =  2.0

     total energy              =   -3434.17312289 Ry
     estimated scf accuracy    <       3.79682942 Ry

[...]

     total energy              =   -3437.06114942 Ry
     estimated scf accuracy    <          1.3E-14 Ry

     iteration # 19     ecut=    45.00 Ry     beta= 0.70
     Davidson diagonalization with overlap

     ethr =  1.00E-13,  avg # of iterations =  1.0

     End of self-consistent calculation

          k = 0.0000 0.0000 0.0000 (  6655 PWs)   bands (ev):

   -49.9825 -49.8824 -49.8823 -24.0785 -24.0025 -23.9816 -23.9816 -23.9067
   -23.9067 -23.6593 -23.4157 -23.4157 -15.1034 -15.0248 -15.0248 -14.9499
   -14.9499 -14.8595 -14.8595 -14.8562 -14.8562 -14.7955 -14.7955 -14.7945
   -14.7945 -14.7546 -14.7546 -14.7413 -14.7379 -14.7379 -14.7108 -14.7089
   -14.7089 -14.7062 -14.7062 -14.6574 -14.6376  -8.2413   1.8489   2.6557
     4.1904   4.6876   4.6876   5.4211   6.6456   6.6501   8.7851   9.5672
     9.5672  10.9944  10.9944  11.1309  11.1310  11.7272  11.7272  11.8074
    11.9025  12.3811  12.3983  12.3983  12.7454  14.6176  14.8824  14.8824
    15.3197  15.3790  15.3790  15.4316  15.4316  15.6230  15.6230  15.9765
    16.1244  16.1244

     occupation numbers
     1.0000   1.0000   1.0000   1.0000   1.0000   1.0000   1.0000   1.0000
     1.0000   1.0000   1.0000   1.0000   1.0000   1.0000   1.0000   1.0000
     1.0000   1.0000   1.0000   1.0000   1.0000   1.0000   1.0000   1.0000
     1.0000   1.0000   1.0000   1.0000   1.0000   1.0000   1.0000   1.0000
     1.0000   1.0000   1.0000   1.0000   1.0000   1.0000   1.0000   1.0000
     1.0000   1.0000   1.0000   1.0000   1.0000   1.0000   1.0000   1.0000
     1.0000   1.0000   1.0000   1.0000   1.0000   1.0000   1.0000   1.0000
     1.0000   1.0000   1.0000   1.0000   1.0000   0.0824   0.0028   0.0028
     0.0000   0.0000   0.0000   0.0000   0.0000   0.0000   0.0000   0.0000
     0.0000   0.0000

[...]

          k = 0.2500 0.5774-0.3374 (  6610 PWs)   bands (ev):

[...]

     occupation numbers
     1.0000   1.0000   1.0000   1.0000   1.0000   1.0000   1.0000   1.0000
     1.0000   1.0000   1.0000   1.0000   1.0000   1.0000   1.0000   1.0000
     1.0000   1.0000   1.0000   1.0000   1.0000   1.0000   1.0000   1.0000
     1.0000   1.0000   1.0000   1.0000   1.0000   1.0000   1.0000   1.0000
     1.0000   1.0000   1.0000   1.0000   1.0000   1.0000   1.0000   1.0000
     1.0000   1.0000   1.0000   1.0000   1.0000   1.0000   1.0000   1.0000
     1.0000   1.0000   1.0000   1.0000   1.0000   1.0000   1.0000   1.0000
     1.0000   1.0000   1.0000   1.0000   0.9977   0.7148   0.1726   0.0064
     0.0000   0.0000   0.0000   0.0000   0.0000   0.0000   0.0000   0.0000
     0.0000   0.0000

     the Fermi energy is    14.3502 ev

!    total energy              =   -3437.06114942 Ry

     total all-electron energy =     -3437.061149 Ry
     estimated scf accuracy    <          3.2E-15 Ry
     smearing contrib. (-TS)   =      -0.01273100 Ry
     internal energy E=F+TS    =   -3437.04841842 Ry

     The total energy is F=E-TS. E is the sum of the following terms:
     one-electron contribution =    -685.17243185 Ry
     hartree contribution      =     419.00041647 Ry
     xc contribution           =    -173.38143674 Ry
     ewald contribution        =    -822.75185197 Ry
     one-center paw contrib.   =   -2174.74311433 Ry
      -> PAW hartree energy AE =      16.83962860 Ry
      -> PAW hartree energy PS =     -16.72196149 Ry
      -> PAW xc energy AE      =    -382.48208242 Ry
      -> PAW xc energy PS      =      22.19395047 Ry
      -> total E_H with PAW    =     419.11808357 Ry
      -> total E_XC with PAW   =    -533.66956869 Ry

     convergence has been achieved in  19 iterations

     Forces acting on atoms (cartesian axes, Ry/au):

     atom    1 type  1   force =     0.00000000    0.00000000    0.00000000
     atom    2 type  2   force =     0.00000000    0.00000000   -0.00000000
     atom    3 type  2   force =    -0.00000000   -0.00000000    0.00000000
     atom    4 type  2   force =    -0.00000000   -0.00000000   -0.00000000
     atom    5 type  3   force =     0.00000000    0.00000000    0.00000000
     atom    6 type  3   force =     0.00000000    0.00000000   -0.00016001
     atom    7 type  3   force =    -0.00000000    0.00000000    0.00016001
     atom    8 type  3   force =     0.00000000    0.00000000   -0.00016001
     atom    9 type  3   force =     0.00000000    0.00000000    0.00016001
     The non-local contrib.  to forces
     atom    1 type  1   force =    -0.00000000   -0.00000000    0.00000000
     atom    2 type  2   force =     0.00000000    0.00000000    0.00000000
     atom    3 type  2   force =     0.00000000    0.00000000   -0.00000000
     atom    4 type  2   force =     0.00000000    0.00000000    0.00000000
     atom    5 type  3   force =    -0.00000000   -0.00000000    0.00000000
     atom    6 type  3   force =    -0.00000000   -0.00000000   -0.25844984
     atom    7 type  3   force =     0.00000000    0.00000000    0.25844984
     atom    8 type  3   force =     0.00000000   -0.00000000   -0.25844984
     atom    9 type  3   force =    -0.00000000   -0.00000000    0.25844984
     The ionic contribution  to forces
     atom    1 type  1   force =    -0.00000539   -0.00000863   -0.00001212
     atom    2 type  2   force =     0.00002362    0.00003900    0.00000246
     atom    3 type  2   force =     0.00002328   -0.00002064    0.00000246
     atom    4 type  2   force =    -0.00003163    0.00000639    0.00000246
     atom    5 type  3   force =    -0.00003012   -0.00004922    0.00000414
     atom    6 type  3   force =     0.00000891    0.00000662   34.89014880
     atom    7 type  3   force =     0.00000121    0.00000994  -34.89014937
     atom    8 type  3   force =     0.00000121    0.00000994   34.89014967
     atom    9 type  3   force =     0.00000891    0.00000662  -34.89014850
     The local contribution  to forces
     atom    1 type  1   force =     0.00000000    0.00000000   -0.00000000
     atom    2 type  2   force =     0.00008581    0.00013808    0.00012117
     atom    3 type  2   force =     0.00018525   -0.00000654    0.00012117
     atom    4 type  2   force =    -0.00009776    0.00014572    0.00012117
     atom    5 type  3   force =     0.00000000    0.00000000    0.00013654
     atom    6 type  3   force =     0.00011867    0.00013229  -34.63376905
     atom    7 type  3   force =     0.00006234    0.00015660   34.63397755
     atom    8 type  3   force =     0.00006234    0.00015660  -34.63376905
     atom    9 type  3   force =     0.00011867    0.00013229   34.63397755
     The core correction contribution to forces
     atom    1 type  1   force =    -0.00000000   -0.00000000   -0.00000000
     atom    2 type  2   force =     0.00000021    0.00000033    0.00000027
     atom    3 type  2   force =     0.00000045   -0.00000002    0.00000027
     atom    4 type  2   force =    -0.00000024    0.00000035    0.00000027
     atom    5 type  3   force =     0.00000000    0.00000000    0.00000066
     atom    6 type  3   force =     0.00000067    0.00000074    0.00201462
     atom    7 type  3   force =     0.00000035    0.00000088   -0.00201337
     atom    8 type  3   force =     0.00000035    0.00000088    0.00201462
     atom    9 type  3   force =     0.00000067    0.00000074   -0.00201337
     The Hubbard contrib.    to forces
     atom    1 type  1   force =     0.00000000    0.00000000    0.00000000
     atom    2 type  2   force =     0.00000000    0.00000000    0.00000000
     atom    3 type  2   force =     0.00000000    0.00000000    0.00000000
     atom    4 type  2   force =     0.00000000    0.00000000    0.00000000
     atom    5 type  3   force =     0.00000000    0.00000000    0.00000000
     atom    6 type  3   force =     0.00000000    0.00000000    0.00000000
     atom    7 type  3   force =     0.00000000    0.00000000    0.00000000
     atom    8 type  3   force =     0.00000000    0.00000000    0.00000000
     atom    9 type  3   force =     0.00000000    0.00000000    0.00000000
     The SCF correction term to forces
     atom    1 type  1   force =     0.00000000    0.00000000    0.00000000
     atom    2 type  2   force =    -0.00000000   -0.00000000   -0.00000000
     atom    3 type  2   force =    -0.00000000    0.00000000   -0.00000000
     atom    4 type  2   force =     0.00000000   -0.00000000   -0.00000000
     atom    5 type  3   force =     0.00000000    0.00000000   -0.00000000
     atom    6 type  3   force =     0.00000000    0.00000000    0.00000005
     atom    7 type  3   force =     0.00000000    0.00000000   -0.00000005
     atom    8 type  3   force =     0.00000000    0.00000000    0.00000005
     atom    9 type  3   force =     0.00000000    0.00000000   -0.00000005

     Total force =     0.000320     Total SCF correction =     0.000000

     Computing stress (Cartesian axis) and pressure

          total   stress  (Ry/bohr**3)                   (kbar)     P=      150.55
   0.00102457  -0.00000000   0.00000000          150.72       -0.00        0.00
  -0.00000000   0.00102457  -0.00000000           -0.00      150.72       -0.00
   0.00000000   0.00000000   0.00102118            0.00        0.00      150.22

     kinetic stress (kbar)   8574.65     -0.00      0.00
                               -0.00   8574.65      0.00
                                0.00      0.00   8543.93

     local   stress (kbar) -15804.19      0.00     -0.00
                                0.00 -15804.19     -0.00
                               -0.00     -0.00  33823.16

     nonloc. stress (kbar)  11619.30     -0.00      0.00
                               -0.00  11619.30     -0.00
                                0.00     -0.00  11662.02

     hartree stress (kbar)  23676.87     -0.00     -0.00
                               -0.00  23676.87      0.00
                               -0.00      0.00    154.07

     exc-cor stress (kbar)  -2827.53     -0.00      0.00
                               -0.00  -2827.53      0.00
                                0.00      0.00  -2830.67

     corecor stress (kbar)  -2696.97      0.00     -0.00
                                0.00  -2696.97     -0.00
                               -0.00     -0.00  -2698.47

     ewald   stress (kbar) -22391.41     -0.00      0.00
                               -0.00 -22391.41      0.00
                                0.00      0.00 -48503.82

     hubbard stress (kbar)      0.00      0.00      0.00
                                0.00      0.00      0.00
                                0.00      0.00      0.00

     DFT-D   stress (kbar)      0.00      0.00      0.00
                                0.00      0.00      0.00
                                0.00      0.00      0.00

     XDM     stress (kbar)      0.00      0.00      0.00
                                0.00      0.00      0.00
                                0.00      0.00      0.00

     dft-nl  stress (kbar)      0.00      0.00      0.00
                                0.00      0.00      0.00
                                0.00      0.00      0.00

     TS-vdW  stress (kbar)      0.00      0.00      0.00
                                0.00      0.00      0.00
                                0.00      0.00      0.00

[...]

                                0.00      0.00      0.00

     Writing all to output data dir ./kagome.save/

     General routines

     Parallel routines

     PAW routines

   This run was terminated on:   2:36:48  30Jul2023

   JOB DONE.