     Program PWSCF v.7.0 starts on 12Jun2023 at  8: 8:45

     K-points division:     npool     =       2
     R & G space division:  proc/nbgrp/npool/nimage =      10

     Reading input from vcrelax.in

     Current dimensions of program PWSCF are:
     Max number of different atomic species (ntypx) = 10
     Max number of k-points (npk) =  40000
     Max angular momentum in pseudopotentials (lmaxx) =  4
     Message from routine read_pp_mesh:
     mismatch in mesh size, discarding the one in header
     Message from routine read_pp_mesh:
     mismatch in mesh size, discarding the one in header
     Message from routine read_pp_mesh:
     mismatch in mesh size, discarding the one in header
     Message from routine setup:
     using ibrav=0 with symmetry is DISCOURAGED, use correct ibrav instead

     Subspace diagonalization in iterative solution of the eigenvalue problem:
     a serial algorithm will be used

     Using Slab Decomposition

     bravais-lattice index     =            0
     lattice parameter (alat)  =      10.4020  a.u.
     unit-cell volume          =    1747.1249 (a.u.)^3
     number of atoms/cell      =            9
     number of atomic types    =            3
     number of electrons       =       123.00
     number of Kohn-Sham states=           74
     kinetic-energy cutoff     =      45.0000  Ry
     charge density cutoff     =     360.0000  Ry
     scf convergence threshold =      1.0E-11
     mixing beta               =       0.6000
     number of iterations used =            8  plain     mixing
     energy convergence thresh.=      1.0E-05
     force convergence thresh. =      1.0E-04
     press convergence thresh. =      5.0E-01
     Exchange-correlation= SLA PW PBX PBC
                           (   1   4   3   4   0   0   0)
     nstep                     =          100

     celldm(1)=  10.402030  celldm(2)=   0.000000  celldm(3)=   0.000000
     celldm(4)=   0.000000  celldm(5)=   0.000000  celldm(6)=   0.000000

     crystal axes: (cart. coord. in units of alat)
               a(1) = (   1.000000  -0.000001   0.000000 )
               a(2) = (  -0.500001   0.866025   0.000000 )
               a(3) = (   0.000000   0.000000   1.792419 )

     reciprocal axes: (cart. coord. in units 2 pi/alat)
               b(1) = (  1.000001  0.577353  0.000000 )
               b(2) = (  0.000002  1.154702  0.000000 )
               b(3) = (  0.000000  0.000000  0.557905 )

     PseudoPot. # 1 for Cs read from file:
     ./Cs.upf
     MD5 check sum: 541f6363487545700a1f267f58e7ad21
     Pseudo is Projector augmented-wave + core cor, Zval =  9.0
     Generated using ATOMPAW code
     Shape of augmentation charge: SINC**2
     Using radial grid of 2342 points,  6 beta functions with:
                l(1) =   0
                l(2) =   0
                l(3) =   1
                l(4) =   1
                l(5) =   2
                l(6) =   2
     Q(r) pseudized with 0 coefficients

     PseudoPot. # 2 for V  read from file:
     ./V.upf
     MD5 check sum: 7f2f11533c26bed1e4abef38184b9f47
     Pseudo is Projector augmented-wave + core cor, Zval = 13.0
     Generated using ATOMPAW code
     Shape of augmentation charge: BESSEL
     Using radial grid of 2342 points,  6 beta functions with:
                l(1) =   0
                l(2) =   0
                l(3) =   1
                l(4) =   1
                l(5) =   2
                l(6) =   2
     Q(r) pseudized with 0 coefficients

     PseudoPot. # 3 for Sb read from file:
     ./Sb.upf
     MD5 check sum: 0b06ae7fe364114d19db6fe830587df2
     Pseudo is Projector augmented-wave + core cor, Zval = 15.0
     Generated using ATOMPAW code
     Shape of augmentation charge: BESSEL
     Using radial grid of 2342 points,  6 beta functions with:
                l(1) =   0
                l(2) =   0
                l(3) =   1
                l(4) =   1
                l(5) =   2
                l(6) =   2
     Q(r) pseudized with 0 coefficients

     atomic species   valence    mass     pseudopotential
        Cs             9.00   132.90545     Cs( 1.00)
        V             13.00    50.94150     V ( 1.00)
        Sb            15.00   121.76000     Sb( 1.00)

      8 Sym. Ops., with inversion, found

                                    s                        frac. trans.

      isym =  1     identity

 cryst.   s( 1) = (     1          0          0      )
                  (     0          1          0      )
                  (     0          0          1      )

 cart.    s( 1) = (  1.0000000  0.0000000  0.0000000 )
                  (  0.0000000  1.0000000  0.0000000 )
                  (  0.0000000  0.0000000  1.0000000 )

      isym =  2     180 deg rotation - cart. axis [0,0,1]

[...]

      isym =  3     180 deg rotation - cryst. axis [1,-1,0]

[...]

      isym =  5     inversion

[...]

      isym =  6     inv. 180 deg rotation - cart. axis [0,0,1]

[...]

      isym =  7     inv. 180 deg rotation - cryst. axis [1,-1,0]

[...]

   Cartesian axes

     site n.     atom                  positions (alat units)
         1           Cs  tau(   1) = (   0.0000000   0.0000000   0.0000000  )
         2           V   tau(   2) = (   0.2499994   0.4330117   0.8962097  )
         3           V   tau(   3) = (   0.5000000  -0.0000007   0.8962097  )
         4           V   tau(   4) = (  -0.2500006   0.4330125   0.8962097  )
         5           Sb  tau(   5) = (   0.0000000   0.0000000   0.8962097  )
         6           Sb  tau(   6) = (   0.4999990   0.2886743   1.3086774  )
         7           Sb  tau(   7) = (  -0.0000003   0.5773491   0.4837420  )
         8           Sb  tau(   8) = (  -0.0000003   0.5773491   1.3086774  )
         9           Sb  tau(   9) = (   0.4999990   0.2886743   0.4837420  )

   Crystallographic axes

     site n.     atom                  positions (cryst. coord.)
         1           Cs  tau(   1) = (  0.0000000  0.0000000  0.0000000  )
         2           V   tau(   2) = (  0.5000000  0.5000000  0.5000000  )
         3           V   tau(   3) = (  0.5000000 -0.0000000  0.5000000  )
         4           V   tau(   4) = ( -0.0000000  0.5000000  0.5000000  )
         5           Sb  tau(   5) = (  0.0000000  0.0000000  0.5000000  )
         6           Sb  tau(   6) = (  0.6666663  0.3333337  0.7301178  )
         7           Sb  tau(   7) = (  0.3333337  0.6666663  0.2698822  )
         8           Sb  tau(   8) = (  0.3333337  0.6666663  0.7301178  )
         9           Sb  tau(   9) = (  0.6666663  0.3333337  0.2698822  )

     number of k points=   100  Gaussian smearing, width (Ry)=  0.0200
                       cart. coord. in units 2pi/alat
        k(    1) = (   0.0000000   0.0000000   0.0000000), wk =   0.0041152
        k(    2) = (   0.0000000   0.0000000   0.0929842), wk =   0.0082305
        k(    3) = (   0.0000000   0.0000000   0.1859684), wk =   0.0082305
        k(    4) = (   0.0000000   0.0000000  -0.2789526), wk =   0.0041152
        k(    5) = (   0.0000002   0.1283002   0.0000000), wk =   0.0164609
        k(    6) = (   0.0000002   0.1283002   0.0929842), wk =   0.0329218
        k(    7) = (   0.0000002   0.1283002   0.1859684), wk =   0.0329218
        k(    8) = (   0.0000002   0.1283002  -0.2789526), wk =   0.0164609
        k(    9) = (   0.0000004   0.2566005   0.0000000), wk =   0.0164609
        k(   10) = (   0.0000004   0.2566005   0.0929842), wk =   0.0329218
        k(   11) = (   0.0000004   0.2566005   0.1859684), wk =   0.0329218
        k(   12) = (   0.0000004   0.2566005  -0.2789526), wk =   0.0164609
        k(   13) = (   0.0000006   0.3849007   0.0000000), wk =   0.0164609
        k(   14) = (   0.0000006   0.3849007   0.0929842), wk =   0.0329218
        k(   15) = (   0.0000006   0.3849007   0.1859684), wk =   0.0329218
        k(   16) = (   0.0000006   0.3849007  -0.2789526), wk =   0.0164609
        k(   17) = (   0.0000008   0.5132010   0.0000000), wk =   0.0164609
        k(   18) = (   0.0000008   0.5132010   0.0929842), wk =   0.0329218
        k(   19) = (   0.0000008   0.5132010   0.1859684), wk =   0.0329218
        k(   20) = (   0.0000008   0.5132010  -0.2789526), wk =   0.0164609
        k(   21) = (   0.1111114   0.1924505   0.0000000), wk =   0.0082305
        k(   22) = (   0.1111114   0.1924505   0.0929842), wk =   0.0164609
        k(   23) = (   0.1111114   0.1924505   0.1859684), wk =   0.0164609
        k(   24) = (   0.1111114   0.1924505  -0.2789526), wk =   0.0082305
        k(   25) = (   0.1111116   0.3207508   0.0000000), wk =   0.0164609
        k(   26) = (   0.1111116   0.3207508   0.0929842), wk =   0.0329218
        k(   27) = (   0.1111116   0.3207508   0.1859684), wk =   0.0329218
        k(   28) = (   0.1111116   0.3207508  -0.2789526), wk =   0.0164609
        k(   29) = (   0.1111118   0.4490510   0.0000000), wk =   0.0164609
        k(   30) = (   0.1111118   0.4490510   0.0929842), wk =   0.0329218
        k(   31) = (   0.1111118   0.4490510   0.1859684), wk =   0.0329218
        k(   32) = (   0.1111118   0.4490510  -0.2789526), wk =   0.0164609
        k(   33) = (   0.1111120   0.5773512   0.0000000), wk =   0.0164609
        k(   34) = (   0.1111120   0.5773512   0.0929842), wk =   0.0329218
        k(   35) = (   0.1111120   0.5773512   0.1859684), wk =   0.0329218
        k(   36) = (   0.1111120   0.5773512  -0.2789526), wk =   0.0164609
        k(   37) = (   0.1111104  -0.4490507   0.0000000), wk =   0.0164609
        k(   38) = (   0.1111104  -0.4490507   0.0929842), wk =   0.0329218
        k(   39) = (   0.1111104  -0.4490507   0.1859684), wk =   0.0329218
        k(   40) = (   0.1111104  -0.4490507  -0.2789526), wk =   0.0164609
        k(   41) = (   0.1111106  -0.3207504   0.0000000), wk =   0.0164609
        k(   42) = (   0.1111106  -0.3207504   0.0929842), wk =   0.0329218
        k(   43) = (   0.1111106  -0.3207504   0.1859684), wk =   0.0329218
        k(   44) = (   0.1111106  -0.3207504  -0.2789526), wk =   0.0164609
        k(   45) = (   0.1111108  -0.1924502   0.0000000), wk =   0.0164609
        k(   46) = (   0.1111108  -0.1924502   0.0929842), wk =   0.0329218
        k(   47) = (   0.1111108  -0.1924502   0.1859684), wk =   0.0329218
        k(   48) = (   0.1111108  -0.1924502  -0.2789526), wk =   0.0164609
        k(   49) = (   0.1111110  -0.0641500   0.0000000), wk =   0.0082305
        k(   50) = (   0.1111110  -0.0641500   0.0929842), wk =   0.0164609
        k(   51) = (   0.1111110  -0.0641500   0.1859684), wk =   0.0164609
        k(   52) = (   0.1111110  -0.0641500  -0.2789526), wk =   0.0082305
        k(   53) = (   0.2222228   0.3849010   0.0000000), wk =   0.0082305
        k(   54) = (   0.2222228   0.3849010   0.0929842), wk =   0.0164609
        k(   55) = (   0.2222228   0.3849010   0.1859684), wk =   0.0164609
        k(   56) = (   0.2222228   0.3849010  -0.2789526), wk =   0.0082305
        k(   57) = (   0.2222230   0.5132013   0.0000000), wk =   0.0164609
        k(   58) = (   0.2222230   0.5132013   0.0929842), wk =   0.0329218
        k(   59) = (   0.2222230   0.5132013   0.1859684), wk =   0.0329218
[...]
        k(    2) = (   0.0000000   0.0000000   0.1666667), wk =   0.0082305
        k(    3) = (   0.0000000   0.0000000   0.3333333), wk =   0.0082305
        k(    4) = (   0.0000000   0.0000000  -0.5000000), wk =   0.0041152
        k(    5) = (  -0.0000000   0.1111111   0.0000000), wk =   0.0164609
        k(    6) = (  -0.0000000   0.1111111   0.1666667), wk =   0.0329218
        k(    7) = (  -0.0000000   0.1111111   0.3333333), wk =   0.0329218
        k(    8) = (  -0.0000000   0.1111111  -0.5000000), wk =   0.0164609
        k(    9) = (  -0.0000000   0.2222222   0.0000000), wk =   0.0164609
        k(   10) = (  -0.0000000   0.2222222   0.1666667), wk =   0.0329218
        k(   11) = (  -0.0000000   0.2222222   0.3333333), wk =   0.0329218
        k(   12) = (  -0.0000000   0.2222222  -0.5000000), wk =   0.0164609
        k(   13) = (   0.0000000   0.3333333   0.0000000), wk =   0.0164609
        k(   14) = (   0.0000000   0.3333333   0.1666667), wk =   0.0329218
        k(   15) = (   0.0000000   0.3333333   0.3333333), wk =   0.0329218
        k(   16) = (   0.0000000   0.3333333  -0.5000000), wk =   0.0164609
        k(   17) = (  -0.0000000   0.4444444   0.0000000), wk =   0.0164609
        k(   18) = (  -0.0000000   0.4444444   0.1666667), wk =   0.0329218
        k(   19) = (  -0.0000000   0.4444444   0.3333333), wk =   0.0329218
        k(   20) = (  -0.0000000   0.4444444  -0.5000000), wk =   0.0164609
        k(   21) = (   0.1111111   0.1111111   0.0000000), wk =   0.0082305
        k(   22) = (   0.1111111   0.1111111   0.1666667), wk =   0.0164609
        k(   23) = (   0.1111111   0.1111111   0.3333333), wk =   0.0164609
        k(   24) = (   0.1111111   0.1111111  -0.5000000), wk =   0.0082305
        k(   25) = (   0.1111111   0.2222222   0.0000000), wk =   0.0164609
        k(   26) = (   0.1111111   0.2222222   0.1666667), wk =   0.0329218
        k(   27) = (   0.1111111   0.2222222   0.3333333), wk =   0.0329218
        k(   28) = (   0.1111111   0.2222222  -0.5000000), wk =   0.0164609
        k(   29) = (   0.1111111   0.3333333   0.0000000), wk =   0.0164609
        k(   30) = (   0.1111111   0.3333333   0.1666667), wk =   0.0329218
        k(   31) = (   0.1111111   0.3333333   0.3333333), wk =   0.0329218
        k(   32) = (   0.1111111   0.3333333  -0.5000000), wk =   0.0164609
        k(   33) = (   0.1111111   0.4444444   0.0000000), wk =   0.0164609
        k(   34) = (   0.1111111   0.4444444   0.1666667), wk =   0.0329218
        k(   35) = (   0.1111111   0.4444444   0.3333333), wk =   0.0329218
        k(   36) = (   0.1111111   0.4444444  -0.5000000), wk =   0.0164609
        k(   37) = (   0.1111111  -0.4444444   0.0000000), wk =   0.0164609
        k(   38) = (   0.1111111  -0.4444444   0.1666667), wk =   0.0329218
        k(   39) = (   0.1111111  -0.4444444   0.3333333), wk =   0.0329218
        k(   40) = (   0.1111111  -0.4444444  -0.5000000), wk =   0.0164609
        k(   41) = (   0.1111111  -0.3333333   0.0000000), wk =   0.0164609
        k(   42) = (   0.1111111  -0.3333333   0.1666667), wk =   0.0329218
        k(   43) = (   0.1111111  -0.3333333   0.3333333), wk =   0.0329218
        k(   44) = (   0.1111111  -0.3333333  -0.5000000), wk =   0.0164609
        k(   45) = (   0.1111111  -0.2222222   0.0000000), wk =   0.0164609
        k(   46) = (   0.1111111  -0.2222222   0.1666667), wk =   0.0329218
        k(   47) = (   0.1111111  -0.2222222   0.3333333), wk =   0.0329218
        k(   48) = (   0.1111111  -0.2222222  -0.5000000), wk =   0.0164609
        k(   49) = (   0.1111111  -0.1111111   0.0000000), wk =   0.0082305
        k(   50) = (   0.1111111  -0.1111111   0.1666667), wk =   0.0164609
        k(   51) = (   0.1111111  -0.1111111   0.3333333), wk =   0.0164609
        k(   52) = (   0.1111111  -0.1111111  -0.5000000), wk =   0.0082305
        k(   53) = (   0.2222222   0.2222222   0.0000000), wk =   0.0082305
        k(   54) = (   0.2222222   0.2222222   0.1666667), wk =   0.0164609
        k(   55) = (   0.2222222   0.2222222   0.3333333), wk =   0.0164609
        k(   56) = (   0.2222222   0.2222222  -0.5000000), wk =   0.0082305
        k(   57) = (   0.2222222   0.3333333   0.0000000), wk =   0.0164609
        k(   58) = (   0.2222222   0.3333333   0.1666667), wk =   0.0329218
        k(   59) = (   0.2222222   0.3333333   0.3333333), wk =   0.0329218
        k(   60) = (   0.2222222   0.3333333  -0.5000000), wk =   0.0164609
[...]
        k(   86) = (   0.3333333  -0.4444444   0.1666667), wk =   0.0329218
        k(   87) = (   0.3333333  -0.4444444   0.3333333), wk =   0.0329218
        k(   88) = (   0.3333333  -0.4444444  -0.5000000), wk =   0.0164609
        k(   89) = (   0.3333333  -0.3333333   0.0000000), wk =   0.0082305
        k(   90) = (   0.3333333  -0.3333333   0.1666667), wk =   0.0164609
        k(   91) = (   0.3333333  -0.3333333   0.3333333), wk =   0.0164609
        k(   92) = (   0.3333333  -0.3333333  -0.5000000), wk =   0.0082305
        k(   93) = (   0.4444444   0.4444444   0.0000000), wk =   0.0082305
        k(   94) = (   0.4444444   0.4444444   0.1666667), wk =   0.0164609
        k(   95) = (   0.4444444   0.4444444   0.3333333), wk =   0.0164609
        k(   96) = (   0.4444444   0.4444444  -0.5000000), wk =   0.0082305
        k(   97) = (   0.4444444  -0.4444444   0.0000000), wk =   0.0082305
        k(   98) = (   0.4444444  -0.4444444   0.1666667), wk =   0.0164609
        k(   99) = (   0.4444444  -0.4444444   0.3333333), wk =   0.0164609
        k(  100) = (   0.4444444  -0.4444444  -0.5000000), wk =   0.0082305

     Check: negative core charge=   -0.000003

     Initial potential from superposition of free atoms

     starting charge     122.9551, renormalised to     123.0000
     Starting wfcs are  162 randomized atomic wfcs
     Checking if some PAW data can be deallocated...

     Self-consistent Calculation

[...]

     c_bands:  2 eigenvalues not converged
     c_bands:  1 eigenvalues not converged
     c_bands:  1 eigenvalues not converged
     c_bands:  1 eigenvalues not converged
     c_bands:  1 eigenvalues not converged
     c_bands:  1 eigenvalues not converged
     c_bands:  1 eigenvalues not converged
     c_bands:  1 eigenvalues not converged
     c_bands:  1 eigenvalues not converged
     c_bands:  1 eigenvalues not converged
     c_bands:  1 eigenvalues not converged
     c_bands:  1 eigenvalues not converged
     c_bands:  1 eigenvalues not converged
     c_bands:  1 eigenvalues not converged
     c_bands:  2 eigenvalues not converged
     c_bands:  1 eigenvalues not converged
     c_bands:  1 eigenvalues not converged
     ethr =  1.00E-06,  avg # of iterations = 17.3

[...]

     total energy              =   -3437.06108849 Ry
     estimated scf accuracy    <          1.4E-13 Ry

     iteration # 20     ecut=    45.00 Ry     beta= 0.60
     Davidson diagonalization with overlap

     ethr =  1.00E-13,  avg # of iterations =  1.0

     End of self-consistent calculation

[...]

          k =-0.0000 0.5319-0.3497 (  6622 PWs)   bands (ev):

[...]

          k = 0.4607-0.2660-0.3497 (  6622 PWs)   bands (ev):

[...]

     occupation numbers
     1.0000   1.0000   1.0000   1.0000   1.0000   1.0000   1.0000   1.0000
     1.0000   1.0000   1.0000   1.0000   1.0000   1.0000   1.0000   1.0000
     1.0000   1.0000   1.0000   1.0000   1.0000   1.0000   1.0000   1.0000
     1.0000   1.0000   1.0000   1.0000   1.0000   1.0000   1.0000   1.0000
     1.0000   1.0000   1.0000   1.0000   1.0000   1.0000   1.0000   1.0000
     1.0000   1.0000   1.0000   1.0000   1.0000   1.0000   1.0000   1.0000
     1.0000   1.0000   1.0000   1.0000   1.0000   1.0000   1.0000   1.0000
     1.0000   1.0000   1.0000   1.0000   1.0000   0.8512   0.7389   0.0056
     0.0000   0.0000   0.0000   0.0000   0.0000   0.0000   0.0000   0.0000
     0.0000   0.0000

     the Fermi energy is    14.3476 ev

!    total energy              =   -3437.06108849 Ry

     total all-electron energy =     -3437.061088 Ry
     estimated scf accuracy    <          1.3E-14 Ry
     smearing contrib. (-TS)   =      -0.01298574 Ry
     internal energy E=F+TS    =   -3437.04810275 Ry

     The total energy is F=E-TS. E is the sum of the following terms:
     one-electron contribution =    -685.16906875 Ry
     hartree contribution      =     418.99789826 Ry
     xc contribution           =    -173.38137239 Ry
     ewald contribution        =    -822.75216643 Ry
     one-center paw contrib.   =   -2174.74339344 Ry
      -> PAW hartree energy AE =      16.83981211 Ry
      -> PAW hartree energy PS =     -16.72214848 Ry
      -> PAW xc energy AE      =    -382.48214058 Ry
      -> PAW xc energy PS      =      22.19400448 Ry
      -> total E_H with PAW    =     419.11556189 Ry
      -> total E_XC with PAW   =    -533.66950849 Ry

     convergence has been achieved in  20 iterations

     Forces acting on atoms (cartesian axes, Ry/au):

     atom    1 type  1   force =     0.00000000    0.00000000    0.00000000
     atom    2 type  2   force =     0.00000000    0.00000000    0.00000000
     atom    3 type  2   force =     0.00000000    0.00000000    0.00000000
     atom    4 type  2   force =     0.00000000    0.00000000    0.00000000
     atom    5 type  3   force =     0.00000000    0.00000000    0.00000000
     atom    6 type  3   force =    -0.00000029    0.00000017    0.00001170
     atom    7 type  3   force =     0.00000029   -0.00000017   -0.00001170
     atom    8 type  3   force =     0.00000029   -0.00000017    0.00001170
     atom    9 type  3   force =    -0.00000029    0.00000017   -0.00001170
     The non-local contrib.  to forces
     atom    1 type  1   force =     0.00000000    0.00000000    0.00000000
     atom    2 type  2   force =     0.00000000    0.00000000    0.00000000
     atom    3 type  2   force =     0.00000000    0.00000000    0.00000000
     atom    4 type  2   force =     0.00000000    0.00000000    0.00000000
     atom    5 type  3   force =     0.00000000    0.00000000    0.00000000
     atom    6 type  3   force =     0.00000033   -0.00000019   -0.25754627
     atom    7 type  3   force =    -0.00000033    0.00000019    0.25754627
     atom    8 type  3   force =    -0.00000033    0.00000019   -0.25754627
     atom    9 type  3   force =     0.00000033   -0.00000019    0.25754627
     The ionic contribution  to forces
     atom    1 type  1   force =    -0.00000000   -0.00000000   -0.00000000
     atom    2 type  2   force =     0.00000000    0.00000000    0.00000000
     atom    3 type  2   force =     0.00000000    0.00000000    0.00000000
     atom    4 type  2   force =    -0.00000000   -0.00000000    0.00000000
     atom    5 type  3   force =    -0.00000001   -0.00000000    0.00000000
     atom    6 type  3   force =    -0.00000898    0.00000451   34.89015335
     atom    7 type  3   force =     0.00000899   -0.00000450  -34.89015335
     atom    8 type  3   force =     0.00000899   -0.00000450   34.89015335
     atom    9 type  3   force =    -0.00000898    0.00000451  -34.89015335
     The local contribution  to forces
     atom    1 type  1   force =    -0.00000000    0.00000000   -0.00000000
     atom    2 type  2   force =     0.00000005    0.00000000    0.00000002
     atom    3 type  2   force =     0.00000002    0.00000000    0.00000002
     atom    4 type  2   force =     0.00000003   -0.00000000    0.00000002
     atom    5 type  3   force =    -0.00000000   -0.00000000    0.00000002
     atom    6 type  3   force =     0.00000841   -0.00000421  -34.63459787
     atom    7 type  3   force =    -0.00000830    0.00000423   34.63459790
     atom    8 type  3   force =    -0.00000830    0.00000423  -34.63459787
     atom    9 type  3   force =     0.00000841   -0.00000421   34.63459790
     The core correction contribution to forces
     atom    1 type  1   force =    -0.00000000   -0.00000000   -0.00000000
     atom    2 type  2   force =     0.00000000    0.00000000    0.00000000
     atom    3 type  2   force =     0.00000000   -0.00000000    0.00000000
     atom    4 type  2   force =     0.00000000   -0.00000000    0.00000000
     atom    5 type  3   force =    -0.00000000    0.00000000    0.00000000
     atom    6 type  3   force =    -0.00000000    0.00000000    0.00200212
     atom    7 type  3   force =     0.00000000   -0.00000000   -0.00200212
     atom    8 type  3   force =     0.00000000   -0.00000000    0.00200212
     atom    9 type  3   force =    -0.00000000    0.00000000   -0.00200212
     The Hubbard contrib.    to forces
     atom    1 type  1   force =     0.00000000    0.00000000    0.00000000
     atom    2 type  2   force =     0.00000000    0.00000000    0.00000000
     atom    3 type  2   force =     0.00000000    0.00000000    0.00000000
     atom    4 type  2   force =     0.00000000    0.00000000    0.00000000
     atom    5 type  3   force =     0.00000000    0.00000000    0.00000000
     atom    6 type  3   force =     0.00000000    0.00000000    0.00000000
     atom    7 type  3   force =     0.00000000    0.00000000    0.00000000
     atom    8 type  3   force =     0.00000000    0.00000000    0.00000000
     atom    9 type  3   force =     0.00000000    0.00000000    0.00000000
     The SCF correction term to forces
     atom    1 type  1   force =    -0.00000000   -0.00000000    0.00000000
     atom    2 type  2   force =     0.00000000   -0.00000000   -0.00000000
     atom    3 type  2   force =    -0.00000000   -0.00000000    0.00000000
     atom    4 type  2   force =     0.00000000    0.00000000   -0.00000000
     atom    5 type  3   force =     0.00000000    0.00000000   -0.00000000
     atom    6 type  3   force =    -0.00000002    0.00000001    0.00000038
     atom    7 type  3   force =     0.00000002   -0.00000001   -0.00000038
     atom    8 type  3   force =     0.00000002   -0.00000001    0.00000038
     atom    9 type  3   force =    -0.00000002    0.00000001   -0.00000038

     Total force =     0.000023     Total SCF correction =     0.000001

     Computing stress (Cartesian axis) and pressure

          total   stress  (Ry/bohr**3)                   (kbar)     P=      150.43
   0.00102499  -0.00000000   0.00000000          150.78       -0.00        0.00
  -0.00000000   0.00102499   0.00000000           -0.00      150.78        0.00
   0.00000000   0.00000000   0.00101778            0.00        0.00      149.72

     kinetic stress (kbar)   8574.75     -0.00      0.00
                               -0.00   8574.75      0.00
                                0.00      0.00   8543.69

     local   stress (kbar) -15803.83     -0.01      0.00
                               -0.01 -15803.84      0.00
                                0.00      0.00  33823.10

     nonloc. stress (kbar)  11619.05      0.00      0.00
                                0.00  11619.05      0.00
                                0.00      0.00  11661.90

     hartree stress (kbar)  23676.76      0.00     -0.00
                                0.00  23676.76     -0.00
                               -0.00     -0.00    154.05

     exc-cor stress (kbar)  -2827.53     -0.00      0.00
                               -0.00  -2827.53     -0.00
                                0.00     -0.00  -2830.67

     corecor stress (kbar)  -2696.97      0.00      0.00
                                0.00  -2696.97     -0.00
                                0.00     -0.00  -2698.47

     ewald   stress (kbar) -22391.45      0.01      0.00
                                0.01 -22391.44      0.00
                                0.00      0.00 -48503.88

     hubbard stress (kbar)      0.00      0.00      0.00
                                0.00      0.00      0.00
                                0.00      0.00      0.00

     DFT-D   stress (kbar)      0.00      0.00      0.00
                                0.00      0.00      0.00
                                0.00      0.00      0.00

     XDM     stress (kbar)      0.00      0.00      0.00
                                0.00      0.00      0.00
                                0.00      0.00      0.00

     dft-nl  stress (kbar)      0.00      0.00      0.00
                                0.00      0.00      0.00
                                0.00      0.00      0.00

     TS-vdW  stress (kbar)      0.00      0.00      0.00
                                0.00      0.00      0.00
                                0.00      0.00      0.00

[...]

                                0.00      0.00      0.00

     Writing all to output data dir ./CsV3Sb5.save/

     General routines

     Parallel routines

     PAW routines

   This run was terminated on:   9:39: 8  12Jun2023

   JOB DONE.